784 1568
1 2 3
1 29 2
2 3 3
2 30 2
3 4 4
3 31 1
4 5 3
4 32 3
5 6 4
5 33 4
6 7 4
6 34 4
7 8 1
7 35 1
8 9 2
8 36 5
9 10 5
9 37 4
10 11 1
10 38 3
11 12 1
11 39 4
12 13 3
12 40 1
13 14 4
13 41 2
14 15 4
14 42 3
15 16 4
15 43 4
16 17 2
16 44 4
17 18 2
17 45 1
18 19 4
18 46 4
19 20 2
19 47 3
20 21 5
20 48 4
21 22 3
21 49 3
22 23 1
22 50 5
23 24 4
23 51 3
24 25 2
24 52 5
25 26 5
25 53 4
26 27 3
26 54 1
27 28 2
27 55 5
28 56 4
29 30 5
29 57 1
30 31 3
30 58 4
31 32 3
31 59 2
32 33 5
32 60 4
33 34 1
33 61 4
34 35 2
34 62 1
35 36 1
35 63 3
36 37 2
36 64 1
37 38 1
37 65 5
38 39 3
38 66 5
39 40 3
39 67 4
40 41 1
40 68 4
41 42 2
41 69 4
42 43 2
42 70 5
43 44 1
43 71 5
44 45 5
44 72 2
45 46 3
45 73 3
46 47 5
46 74 1
47 48 3
47 75 3
48 49 3
48 76 2
49 50 4
49 77 1
50 51 3
50 78 1
51 52 1
51 79 5
52 53 1
52 80 5
53 54 4
53 81 4
54 55 5
54 82 4
55 56 4
55 83 5
56 84 2
57 58 3
57 85 2
58 59 4
58 86 2
59 60 4
59 87 1
60 61 4
60 88 4
61 62 2
61 89 1
62 63 4
62 90 3
63 64 3
63 91 1
64 65 2
64 92 4
65 66 2
65 93 3
66 67 3
66 94 5
67 68 3
67 95 2
68 69 2
68 96 3
69 70 4
69 97 1
70 71 4
70 98 4
71 72 4
71 99 1
72 73 5
72 100 4
73 74 1
73 101 5
74 75 3
74 102 5
75 76 5
75 103 1
76 77 1
76 104 3
77 78 1
77 105 2
78 79 1
78 106 4
79 80 1
79 107 2
80 81 1
80 108 1
81 82 2
81 109 3
82 83 4
82 110 2
83 84 4
83 111 1
84 112 2
85 86 2
85 113 5
86 87 2
86 114 1
87 88 5
87 115 1
88 89 2
88 116 3
89 90 2
89 117 2
90 91 5
90 118 1
91 92 3
91 119 5
92 93 1
92 120 3
93 94 2
93 121 5
94 95 2
94 122 5
95 96 1
95 123 3
96 97 4
96 124 1
97 98 2
97 125 2
98 99 3
98 126 5
99 100 3
99 127 1
100 101 1
100 128 5
101 102 3
101 129 4
102 103 4
102 130 5
103 104 1
103 131 3
104 105 3
104 132 2
105 106 4
105 133 5
106 107 3
106 134 4
107 108 2
107 135 3
108 109 4
108 136 3
109 110 3
109 137 4
110 111 2
110 138 5
111 112 2
111 139 4
112 140 5
113 114 3
113 141 5
114 115 1
114 142 2
115 116 5
115 143 1
116 117 3
116 144 2
117 118 2
117 145 3
118 119 4
118 146 2
119 120 1
119 147 2
120 121 4
120 148 5
121 122 5
121 149 5
122 123 2
122 150 3
123 124 3
123 151 4
124 125 2
124 152 5
125 126 5
125 153 2
126 127 3
126 154 1
127 128 2
127 155 1
128 129 1
128 156 2
129 130 4
129 157 3
130 131 5
130 158 5
131 132 1
131 159 5
132 133 5
132 160 5
133 134 1
133 161 3
134 135 1
134 162 2
135 136 2
135 163 2
136 137 1
136 164 3
137 138 2
137 165 5
138 139 1
138 166 3
139 140 1
139 167 5
140 168 5
141 142 5
141 169 2
142 143 1
142 170 5
143 144 4
143 171 5
144 145 2
144 172 2
145 146 4
145 173 5
146 147 2
146 174 5
147 148 2
147 175 1
148 149 2
148 176 4
149 150 4
149 177 4
150 151 2
150 178 5
151 152 3
151 179 5
152 153 3
152 180 3
153 154 3
153 181 2
154 155 1
154 182 1
155 156 5
155 183 5
156 157 4
156 184 5
157 158 3
157 185 2
158 159 1
158 186 3
159 160 3
159 187 5
160 161 3
160 188 1
161 162 5
161 189 1
162 163 3
162 190 1
163 164 3
163 191 1
164 165 3
164 192 1
165 166 5
165 193 5
166 167 1
166 194 4
167 168 2
167 195 4
168 196 5
169 170 5
169 197 3
170 171 1
170 198 1
171 172 2
171 199 3
172 173 2
172 200 1
173 174 3
173 201 1
174 175 4
174 202 5
175 176 4
175 203 2
176 177 3
176 204 1
177 178 1
177 205 1
178 179 1
178 206 1
179 180 1
179 207 4
180 181 5
180 208 2
181 182 3
181 209 5
182 183 2
182 210 4
183 184 3
183 211 1
184 185 5
184 212 4
185 186 1
185 213 5
186 187 4
186 214 3
187 188 1
187 215 4
188 189 1
188 216 5
189 190 4
189 217 5
190 191 1
190 218 3
191 192 3
191 219 1
192 193 4
192 220 5
193 194 1
193 221 4
194 195 5
194 222 3
195 196 3
195 223 4
196 224 3
197 198 1
197 225 4
198 199 1
198 226 2
199 200 1
199 227 5
200 201 1
200 228 3
201 202 5
201 229 3
202 203 4
202 230 1
203 204 1
203 231 2
204 205 2
204 232 4
205 206 4
205 233 3
206 207 4
206 234 1
207 208 5
207 235 3
208 209 4
208 236 4
209 210 2
209 237 3
210 211 1
210 238 2
211 212 1
211 239 2
212 213 1
212 240 5
213 214 5
213 241 1
214 215 4
214 242 3
215 216 4
215 243 2
216 217 3
216 244 1
217 218 2
217 245 1
218 219 3
218 246 2
219 220 5
219 247 5
220 221 2
220 248 2
221 222 2
221 249 1
222 223 2
222 250 2
223 224 5
223 251 1
224 252 2
225 226 3
225 253 2
226 227 4
226 254 2
227 228 1
227 255 5
228 229 5
228 256 4
229 230 1
229 257 2
230 231 3
230 258 2
231 232 5
231 259 5
232 233 5
232 260 4
233 234 4
233 261 3
234 235 3
234 262 4
235 236 3
235 263 1
236 237 1
236 264 5
237 238 2
237 265 1
238 239 5
238 266 1
239 240 5
239 267 4
240 241 5
240 268 1
241 242 2
241 269 3
242 243 2
242 270 4
243 244 1
243 271 3
244 245 5
244 272 5
245 246 5
245 273 2
246 247 4
246 274 1
247 248 1
247 275 5
248 249 4
248 276 3
249 250 4
249 277 5
250 251 4
250 278 2
251 252 3
251 279 3
252 280 4
253 254 1
253 281 5
254 255 4
254 282 1
255 256 2
255 283 4
256 257 4
256 284 3
257 258 5
257 285 4
258 259 2
258 286 4
259 260 5
259 287 2
260 261 1
260 288 2
261 262 4
261 289 5
262 263 2
262 290 1
263 264 3
263 291 1
264 265 2
264 292 4
265 266 3
265 293 1
266 267 4
266 294 2
267 268 1
267 295 5
268 269 2
268 296 2
269 270 3
269 297 5
270 271 1
270 298 1
271 272 1
271 299 2
272 273 3
272 300 5
273 274 2
273 301 3
274 275 5
274 302 1
275 276 4
275 303 5
276 277 4
276 304 4
277 278 4
277 305 2
278 279 5
278 306 5
279 280 3
279 307 2
280 308 5
281 282 2
281 309 4
282 283 2
282 310 1
283 284 3
283 311 1
284 285 1
284 312 4
285 286 2
285 313 4
286 287 1
286 314 5
287 288 4
287 315 1
288 289 1
288 316 2
289 290 2
289 317 2
290 291 3
290 318 5
291 292 4
291 319 5
292 293 1
292 320 5
293 294 2
293 321 3
294 295 4
294 322 5
295 296 2
295 323 5
296 297 3
296 324 1
297 298 3
297 325 3
298 299 3
298 326 1
299 300 5
299 327 3
300 301 3
300 328 5
301 302 1
301 329 3
302 303 3
302 330 3
303 304 3
303 331 1
304 305 2
304 332 1
305 306 4
305 333 2
306 307 5
306 334 4
307 308 5
307 335 4
308 336 3
309 310 4
309 337 3
310 311 4
310 338 4
311 312 3
311 339 3
312 313 5
312 340 5
313 314 5
313 341 1
314 315 4
314 342 2
315 316 1
315 343 5
316 317 2
316 344 1
317 318 4
317 345 3
318 319 4
318 346 4
319 320 5
319 347 3
320 321 5
320 348 2
321 322 3
321 349 5
322 323 2
322 350 2
323 324 5
323 351 5
324 325 4
324 352 3
325 326 1
325 353 2
326 327 2
326 354 5
327 328 2
327 355 3
328 329 2
328 356 5
329 330 3
329 357 1
330 331 2
330 358 5
331 332 1
331 359 1
332 333 3
332 360 3
333 334 3
333 361 2
334 335 3
334 362 3
335 336 1
335 363 1
336 364 2
337 338 3
337 365 3
338 339 5
338 366 4
339 340 1
339 367 2
340 341 3
340 368 3
341 342 5
341 369 4
342 343 4
342 370 1
343 344 2
343 371 4
344 345 5
344 372 2
345 346 5
345 373 1
346 347 1
346 374 5
347 348 4
347 375 2
348 349 1
348 376 2
349 350 5
349 377 2
350 351 2
350 378 4
351 352 4
351 379 5
352 353 3
352 380 5
353 354 5
353 381 2
354 355 1
354 382 5
355 356 1
355 383 1
356 357 5
356 384 1
357 358 5
357 385 2
358 359 4
358 386 5
359 360 4
359 387 1
360 361 1
360 388 3
361 362 3
361 389 3
362 363 2
362 390 2
363 364 3
363 391 4
364 392 3
365 366 5
365 393 4
366 367 1
366 394 4
367 368 2
367 395 3
368 369 4
368 396 4
369 370 4
369 397 4
370 371 2
370 398 1
371 372 1
371 399 1
372 373 1
372 400 3
373 374 5
373 401 5
374 375 5
374 402 3
375 376 3
375 403 3
376 377 2
376 404 2
377 378 3
377 405 3
378 379 1
378 406 1
379 380 1
379 407 3
380 381 1
380 408 2
381 382 1
381 409 5
382 383 1
382 410 3
383 384 2
383 411 2
384 385 2
384 412 3
385 386 5
385 413 5
386 387 3
386 414 3
387 388 5
387 415 1
388 389 4
388 416 2
389 390 3
389 417 4
390 391 1
390 418 4
391 392 1
391 419 3
392 420 1
393 394 5
393 421 3
394 395 4
394 422 1
395 396 2
395 423 4
396 397 5
396 424 3
397 398 2
397 425 1
398 399 5
398 426 2
399 400 5
399 427 2
400 401 4
400 428 1
401 402 3
401 429 3
402 403 2
402 430 1
403 404 3
403 431 1
404 405 5
404 432 1
405 406 5
405 433 2
406 407 3
406 434 1
407 408 2
407 435 3
408 409 4
408 436 5
409 410 1
409 437 1
410 411 2
410 438 5
411 412 1
411 439 2
412 413 2
412 440 1
413 414 1
413 441 4
414 415 3
414 442 1
415 416 4
415 443 2
416 417 2
416 444 3
417 418 5
417 445 3
418 419 3
418 446 5
419 420 1
419 447 5
420 448 2
421 422 4
421 449 1
422 423 4
422 450 2
423 424 2
423 451 2
424 425 3
424 452 4
425 426 5
425 453 5
426 427 1
426 454 5
427 428 3
427 455 4
428 429 4
428 456 5
429 430 2
429 457 2
430 431 4
430 458 4
431 432 5
431 459 4
432 433 2
432 460 3
433 434 2
433 461 5
434 435 2
434 462 2
435 436 1
435 463 2
436 437 4
436 464 5
437 438 5
437 465 2
438 439 5
438 466 2
439 440 1
439 467 2
440 441 3
440 468 2
441 442 2
441 469 2
442 443 5
442 470 4
443 444 2
443 471 5
444 445 4
444 472 5
445 446 5
445 473 5
446 447 2
446 474 5
447 448 5
447 475 4
448 476 3
449 450 1
449 477 4
450 451 5
450 478 2
451 452 3
451 479 4
452 453 3
452 480 5
453 454 1
453 481 1
454 455 2
454 482 5
455 456 3
455 483 3
456 457 2
456 484 5
457 458 5
457 485 2
458 459 1
458 486 4
459 460 5
459 487 3
460 461 5
460 488 5
461 462 5
461 489 3
462 463 1
462 490 4
463 464 1
463 491 5
464 465 2
464 492 5
465 466 5
465 493 2
466 467 5
466 494 3
467 468 3
467 495 2
468 469 2
468 496 3
469 470 1
469 497 5
470 471 2
470 498 5
471 472 5
471 499 5
472 473 5
472 500 3
473 474 2
473 501 1
474 475 4
474 502 2
475 476 3
475 503 3
476 504 4
477 478 5
477 505 5
478 479 5
478 506 2
479 480 1
479 507 3
480 481 4
480 508 1
481 482 5
481 509 2
482 483 1
482 510 2
483 484 1
483 511 2
484 485 4
484 512 5
485 486 4
485 513 4
486 487 5
486 514 2
487 488 5
487 515 3
488 489 4
488 516 2
489 490 3
489 517 5
490 491 2
490 518 3
491 492 1
491 519 1
492 493 3
492 520 1
493 494 1
493 521 1
494 495 5
494 522 5
495 496 3
495 523 2
496 497 5
496 524 4
497 498 5
497 525 1
498 499 4
498 526 2
499 500 2
499 527 5
500 501 4
500 528 1
501 502 4
501 529 3
502 503 3
502 530 1
503 504 5
503 531 4
504 532 2
505 506 1
505 533 3
506 507 2
506 534 2
507 508 4
507 535 2
508 509 2
508 536 1
509 510 1
509 537 1
510 511 2
510 538 4
511 512 4
511 539 1
512 513 4
512 540 4
513 514 1
513 541 1
514 515 3
514 542 5
515 516 3
515 543 2
516 517 1
516 544 5
517 518 1
517 545 2
518 519 1
518 546 2
519 520 3
519 547 1
520 521 2
520 548 2
521 522 2
521 549 2
522 523 4
522 550 5
523 524 1
523 551 2
524 525 4
524 552 4
525 526 1
525 553 5
526 527 3
526 554 5
527 528 2
527 555 2
528 529 3
528 556 1
529 530 5
529 557 4
530 531 5
530 558 3
531 532 3
531 559 5
532 560 4
533 534 4
533 561 5
534 535 2
534 562 2
535 536 4
535 563 2
536 537 5
536 564 4
537 538 5
537 565 4
538 539 1
538 566 3
539 540 2
539 567 4
540 541 5
540 568 1
541 542 5
541 569 2
542 543 3
542 570 1
543 544 2
543 571 2
544 545 1
544 572 3
545 546 4
545 573 3
546 547 4
546 574 5
547 548 5
547 575 1
548 549 2
548 576 2
549 550 2
549 577 1
550 551 1
550 578 2
551 552 2
551 579 5
552 553 1
552 580 2
553 554 2
553 581 4
554 555 5
554 582 1
555 556 1
555 583 2
556 557 4
556 584 2
557 558 5
557 585 3
558 559 3
558 586 5
559 560 1
559 587 2
560 588 2
561 562 4
561 589 2
562 563 2
562 590 4
563 564 1
563 591 4
564 565 3
564 592 5
565 566 4
565 593 1
566 567 4
566 594 3
567 568 1
567 595 5
568 569 1
568 596 2
569 570 3
569 597 4
570 571 1
570 598 3
571 572 3
571 599 5
572 573 3
572 600 5
573 574 1
573 601 1
574 575 1
574 602 4
575 576 1
575 603 5
576 577 5
576 604 5
577 578 2
577 605 2
578 579 3
578 606 5
579 580 5
579 607 4
580 581 4
580 608 2
581 582 2
581 609 4
582 583 3
582 610 5
583 584 1
583 611 4
584 585 1
584 612 2
585 586 1
585 613 2
586 587 3
586 614 5
587 588 4
587 615 2
588 616 2
589 590 2
589 617 5
590 591 3
590 618 1
591 592 1
591 619 5
592 593 1
592 620 5
593 594 2
593 621 1
594 595 5
594 622 4
595 596 5
595 623 5
596 597 1
596 624 2
597 598 2
597 625 4
598 599 5
598 626 2
599 600 1
599 627 5
600 601 5
600 628 3
601 602 2
601 629 4
602 603 3
602 630 4
603 604 5
603 631 5
604 605 4
604 632 2
605 606 3
605 633 5
606 607 3
606 634 2
607 608 2
607 635 5
608 609 1
608 636 1
609 610 3
609 637 4
610 611 1
610 638 1
611 612 5
611 639 5
612 613 4
612 640 1
613 614 3
613 641 1
614 615 2
614 642 3
615 616 2
615 643 5
616 644 4
617 618 5
617 645 4
618 619 5
618 646 4
619 620 1
619 647 3
620 621 5
620 648 5
621 622 4
621 649 3
622 623 5
622 650 5
623 624 1
623 651 3
624 625 4
624 652 4
625 626 1
625 653 5
626 627 1
626 654 2
627 628 3
627 655 5
628 629 4
628 656 3
629 630 4
629 657 3
630 631 3
630 658 1
631 632 3
631 659 2
632 633 4
632 660 2
633 634 4
633 661 5
634 635 5
634 662 3
635 636 4
635 663 3
636 637 1
636 664 3
637 638 2
637 665 4
638 639 3
638 666 1
639 640 4
639 667 3
640 641 1
640 668 4
641 642 5
641 669 3
642 643 1
642 670 3
643 644 4
643 671 2
644 672 3
645 646 4
645 673 4
646 647 2
646 674 2
647 648 4
647 675 5
648 649 5
648 676 3
649 650 5
649 677 2
650 651 5
650 678 2
651 652 2
651 679 4
652 653 2
652 680 5
653 654 2
653 681 5
654 655 5
654 682 5
655 656 2
655 683 3
656 657 2
656 684 4
657 658 1
657 685 4
658 659 3
658 686 4
659 660 1
659 687 3
660 661 3
660 688 1
661 662 2
661 689 1
662 663 2
662 690 2
663 664 4
663 691 4
664 665 4
664 692 5
665 666 3
665 693 5
666 667 2
666 694 3
667 668 3
667 695 5
668 669 4
668 696 5
669 670 4
669 697 4
670 671 5
670 698 5
671 672 1
671 699 3
672 700 2
673 674 1
673 701 3
674 675 3
674 702 1
675 676 4
675 703 4
676 677 2
676 704 5
677 678 3
677 705 3
678 679 1
678 706 1
679 680 5
679 707 4
680 681 2
680 708 5
681 682 2
681 709 1
682 683 5
682 710 2
683 684 3
683 711 5
684 685 3
684 712 4
685 686 2
685 713 4
686 687 5
686 714 5
687 688 4
687 715 1
688 689 4
688 716 5
689 690 2
689 717 3
690 691 2
690 718 3
691 692 3
691 719 5
692 693 1
692 720 3
693 694 1
693 721 1
694 695 5
694 722 4
695 696 4
695 723 4
696 697 2
696 724 2
697 698 1
697 725 1
698 699 3
698 726 1
699 700 5
699 727 1
700 728 1
701 702 4
701 729 1
702 703 4
702 730 3
703 704 3
703 731 2
704 705 5
704 732 3
705 706 3
705 733 2
706 707 2
706 734 5
707 708 3
707 735 5
708 709 2
708 736 3
709 710 5
709 737 3
710 711 3
710 738 5
711 712 2
711 739 5
712 713 4
712 740 4
713 714 3
713 741 3
714 715 5
714 742 2
715 716 3
715 743 1
716 717 4
716 744 1
717 718 2
717 745 4
718 719 3
718 746 3
719 720 5
719 747 2
720 721 1
720 748 3
721 722 2
721 749 4
722 723 3
722 750 2
723 724 1
723 751 5
724 725 2
724 752 5
725 726 1
725 753 4
726 727 4
726 754 1
727 728 4
727 755 3
728 756 3
729 730 1
729 757 3
730 731 5
730 758 2
731 732 3
731 759 1
732 733 1
732 760 5
733 734 3
733 761 4
734 735 5
734 762 3
735 736 3
735 763 3
736 737 2
736 764 2
737 738 1
737 765 1
738 739 3
738 766 1
739 740 1
739 767 5
740 741 4
740 768 5
741 742 2
741 769 5
742 743 3
742 770 1
743 744 1
743 771 4
744 745 1
744 772 5
745 746 5
745 773 4
746 747 3
746 774 5
747 748 2
747 775 1
748 749 2
748 776 1
749 750 1
749 777 1
750 751 4
750 778 4
751 752 4
751 779 2
752 753 4
752 780 1
753 754 1
753 781 1
754 755 1
754 782 1
755 756 1
755 783 4
756 784 5
757 758 2
758 759 5
759 760 4
760 761 2
761 762 4
762 763 1
763 764 3
764 765 3
765 766 2
766 767 2
767 768 3
768 769 4
769 770 2
770 771 2
771 772 2
772 773 3
773 774 5
774 775 5
775 776 2
776 777 2
777 778 3
778 779 2
779 780 5
780 781 4
781 782 2
782 783 3
783 784 4
1 757 4
2 758 2
3 759 3
4 760 3
5 761 2
6 762 2
7 763 4
8 764 3
9 765 3
10 766 1
11 767 2
12 768 2
13 769 1
14 770 4
15 771 1
16 772 2
17 773 5
18 774 2
19 775 4
20 776 1
21 777 3
22 778 4
23 779 1
24 780 5
25 781 2
26 782 5
27 783 4
28 784 1
1 28 3
29 56 4
57 84 1
85 112 2
113 140 4
141 168 4
169 196 3
197 224 2
225 252 4
253 280 1
281 308 1
309 336 3
337 364 4
365 392 4
393 420 3
421 448 2
449 476 2
477 504 5
505 532 5
533 560 5
561 588 2
589 616 1
617 644 3
645 672 1
673 700 4
701 728 4
729 756 1
757 784 4
